# Solution for model GasLib-40
# Objective value = 2.3545396237612682e+01
loadshed[innode_1] 0
loadshed[innode_2] 0
loadshed[innode_3] 0
loadshed[innode_4] 0
loadshed[innode_5] 0
loadshed[innode_6] 0
loadshed[innode_7] 0
loadshed[innode_8] 0
loadshed[source_1] -2.0730199594940002e-01
loadshed[source_2] 1.5449701834349439e-01
loadshed[source_3] 2.0174137374977619e-01
loadshed[sink_1] 0
loadshed[sink_2] 0
loadshed[sink_3] 0
loadshed[sink_4] 0
loadshed[sink_5] 0
loadshed[sink_6] 0
loadshed[sink_7] 0
loadshed[sink_8] 0
loadshed[sink_9] 0
loadshed[sink_10] 0
loadshed[sink_11] 0
loadshed[sink_12] 1
loadshed[sink_13] 0
loadshed[sink_14] 0
loadshed[sink_15] 0
loadshed[sink_16] 0
loadshed[sink_17] 0
loadshed[sink_18] 0
loadshed[sink_19] 0
loadshed[sink_20] 0
loadshed[sink_21] 4.3971849605784541e-01
loadshed[sink_22] 0
loadshed[sink_23] 0
loadshed[sink_24] 0
loadshed[sink_25] 0
loadshed[sink_26] 0
loadshed[sink_27] 0
loadshed[sink_28] 0
loadshed[sink_29] 0
flow[source_1,sink_3] 1.9086270790130618e+02
flow[innode_1,sink_16] 1.6354166666666970e+01
flow[innode_6,sink_13] -1.1717761295737724e+01
flow[sink_13,sink_14] -2.8071927962404391e+01
flow[sink_14,sink_10] -4.4426094629071059e+01
flow[sink_25,sink_26] 1.5788181892481791e+02
flow[sink_26,sink_9] 8.1770833333333655e+01
flow[sink_9,sink_18] 6.5416666666666671e+01
flow[sink_26,sink_4] 5.9756818924817594e+01
flow[sink_4,sink_20] -4.7531118170904733e+01
flow[sink_18,sink_6] 4.9062500000000313e+01
flow[sink_25,innode_8] -1.5815437456796982e+02
flow[sink_6,sink_7] 0
flow[sink_6,sink_22] 3.2708333333333641e+01
flow[sink_7,sink_24] 2.5517103762387318e+01
flow[sink_22,sink_1] 1.6354166666666970e+01
flow[sink_24,sink_21] 9.1629370957206540e+00
flow[sink_21,sink_12] 0
flow[sink_7,sink_5] -4.1871270429053986e+01
flow[sink_5,sink_17] -5.8225437095720650e+01
flow[sink_17,sink_4] -9.0933770429055656e+01
flow[sink_17,sink_8] 1.6354166666668334e+01
flow[sink_3,sink_23] 16.3541666666697
flow[sink_8,sink_20] 0
flow[sink_25,sink_20] 6.3885284837571334e+01
flow[sink_25,sink_15] -6.8249134565348442e+01
flow[sink_15,sink_29] 0
flow[sink_29,sink_28] 1.6354166666667879e+01
flow[sink_29,sink_2] 1.0095746789868178e+02
flow[sink_2,sink_15] 8.4603301232015113e+01
flow[sink_29,innode_7] -1.3366580123201632e+02
flow[innode_4,sink_19] 4.9209861913139918e+01
flow[sink_19,innode_3] 4.5622039563845760e+01
flow[innode_4,innode_5] 7.6987066049265252e+01
flow[sink_27,innode_5] -7.6987066049265252e+01
flow[sink_27,sink_19] 6.0632899382598580e+01
flow[sink_10,sink_11] 3.2708333333333641e+01
flow[sink_10,innode_2] -4.7866555065225725e+01
flow[sink_10,innode_3] -4.5622039563845760e+01
flow[innode_6,sink_25] 1.1717761295737724e+01
flow[sink_11,innode_1] 1.6354166666666970e+01
flow[sink_19,innode_2] 4.7866555065225725e+01
flow[source_3,innode_4] 1.2619692796240517e+02
flow[source_2,innode_7] 1.3366580123201632e+02
flow[sink_3,innode_8] 1.5815437456796982e+02
pressure[innode_1] 7.6337986668307693e+01
pressure[innode_2] 79.0196331064559
pressure[innode_3] 7.8918608265977255e+01
pressure[innode_4] 81.01325
pressure[innode_5] 8.0960294236430755e+01
pressure[innode_6] 7.4273560914587392e+01
pressure[innode_7] 81.01325
pressure[innode_8] 8.0375268879683119e+01
pressure[source_1] 81.01325
pressure[source_2] 81.01325
pressure[source_3] 81.01325
pressure[sink_1] 5.2481679293005882e+01
pressure[sink_2] 7.4880846852931512e+01
pressure[sink_3] 8.0375268879683119e+01
pressure[sink_4] 5.5556400510910031e+01
pressure[sink_5] 4.7743837451867236e+01
pressure[sink_6] 5.4582756903393260e+01
pressure[sink_7] 3.0329903514242091e+01
pressure[sink_8] 5.1464126454537279e+01
pressure[sink_9] 5.8259841706851546e+01
pressure[sink_10] 7.6489687975911238e+01
pressure[sink_11] 7.6337986668307693e+01
pressure[sink_12] 1.01325
pressure[sink_13] 7.4338158974390964e+01
pressure[sink_14] 7.4388396080679229e+01
pressure[sink_15] 7.4604635720676242e+01
pressure[sink_16] 7.5316336833490013e+01
pressure[sink_17] 52.0812116499509
pressure[sink_18] 5.5892871731652889e+01
pressure[sink_19] 79.0196331064559
pressure[sink_20] 5.9043504347565090e+01
pressure[sink_21] 1.01325
pressure[sink_22] 5.3545448435360896e+01
pressure[sink_23] 8.0210550868023347e+01
pressure[sink_24] 1.1147210149512183e+00
pressure[sink_25] 7.4273560914587392e+01
pressure[sink_26] 63.1540371265629
pressure[sink_27] 8.0321443845023879e+01
pressure[sink_28] 77.1429311786011
pressure[sink_29] 7.7438213452218278e+01
interdiction[source_1,sink_3] 0
interdiction[innode_1,sink_16] 0
interdiction[innode_6,sink_13] 0
interdiction[sink_13,sink_14] 0
interdiction[sink_14,sink_10] 0
interdiction[sink_25,sink_26] 0
interdiction[sink_26,sink_9] 0
interdiction[sink_9,sink_18] 0
interdiction[sink_26,sink_4] 0
interdiction[sink_4,sink_20] 0
interdiction[sink_18,sink_6] 0
interdiction[sink_25,innode_8] 0
interdiction[sink_6,sink_7] 1
interdiction[sink_6,sink_22] 0
interdiction[sink_7,sink_24] 0
interdiction[sink_22,sink_1] 0
interdiction[sink_24,sink_21] 0
interdiction[sink_21,sink_12] 0
interdiction[sink_7,sink_5] 0
interdiction[sink_5,sink_17] 0
interdiction[sink_17,sink_4] 0
interdiction[sink_17,sink_8] 0
interdiction[sink_3,sink_23] 0
interdiction[sink_8,sink_20] 1
interdiction[sink_25,sink_20] 0
interdiction[sink_25,sink_15] 0
interdiction[sink_15,sink_29] 1
interdiction[sink_29,sink_28] 0
interdiction[sink_29,sink_2] 0
interdiction[sink_2,sink_15] 0
interdiction[sink_29,innode_7] 0
interdiction[innode_4,sink_19] 0
interdiction[sink_19,innode_3] 0
interdiction[innode_4,innode_5] 0
interdiction[sink_27,innode_5] 0
interdiction[sink_27,sink_19] 0
interdiction[sink_10,sink_11] 0
interdiction[sink_10,innode_2] 0
interdiction[sink_10,innode_3] 0
interdiction[innode_6,sink_25] 0
interdiction[sink_11,innode_1] 0
interdiction[sink_19,innode_2] 0
interdiction[source_3,innode_4] 0
interdiction[source_2,innode_7] 0
interdiction[sink_3,innode_8] 0
WCcheckFlow[source_1,sink_3] 39
WCcheckFlow[innode_1,sink_16] 1
WCcheckFlow[innode_6,sink_13] 13
WCcheckFlow[sink_13,sink_14] 12
WCcheckFlow[sink_14,sink_10] 11
WCcheckFlow[sink_25,sink_26] 15
WCcheckFlow[sink_26,sink_9] 5
WCcheckFlow[sink_9,sink_18] 4
WCcheckFlow[sink_26,sink_4] 9
WCcheckFlow[sink_4,sink_20] 1
WCcheckFlow[sink_18,sink_6] 3
WCcheckFlow[sink_25,innode_8] -36
WCcheckFlow[sink_6,sink_7] 0
WCcheckFlow[sink_6,sink_22] 2
WCcheckFlow[sink_7,sink_24] 3
WCcheckFlow[sink_22,sink_1] 1
WCcheckFlow[sink_24,sink_21] 2
WCcheckFlow[sink_21,sink_12] 1
WCcheckFlow[sink_7,sink_5] -4
WCcheckFlow[sink_5,sink_17] -5
WCcheckFlow[sink_17,sink_4] -7
WCcheckFlow[sink_17,sink_8] 1
WCcheckFlow[sink_3,sink_23] 1
WCcheckFlow[sink_8,sink_20] 0
WCcheckFlow[sink_25,sink_20] 0
WCcheckFlow[sink_25,sink_15] 6
WCcheckFlow[sink_15,sink_29] 0
WCcheckFlow[sink_29,sink_28] 1
WCcheckFlow[sink_29,sink_2] -4
WCcheckFlow[sink_2,sink_15] -5
WCcheckFlow[sink_29,innode_7] 2
WCcheckFlow[innode_4,sink_19] -4
WCcheckFlow[sink_19,innode_3] -5
WCcheckFlow[innode_4,innode_5] 2
WCcheckFlow[sink_27,innode_5] -1
WCcheckFlow[sink_27,sink_19] 0
WCcheckFlow[sink_10,sink_11] 3
WCcheckFlow[sink_10,innode_2] 1
WCcheckFlow[sink_10,innode_3] 6
WCcheckFlow[innode_6,sink_25] -14
WCcheckFlow[sink_11,innode_1] 2
WCcheckFlow[sink_19,innode_2] 0
WCcheckFlow[source_3,innode_4] -1
WCcheckFlow[source_2,innode_7] -1
WCcheckFlow[sink_3,innode_8] 37
